/*********************************************
 * OPL 12.8.0.0 Data
 * Author: ardelain
 * Creation Date: 12 mars 2019 at 09:19:14
 *********************************************/

n=12;
Edges={<1,3>,<2,3>,<3,4>,<1,5>,<2,6>,<1,8>,<7,8>,<3,5>,<9,10>,<3,9>,<10,12>,<11,12>,<3,12>,<4,5>,<5,11>,<1,2>,<5,8>,<3,11>};
Cost=[5 1 3 1 2 4 2 3 2 5 1 6 2 2 1 1 2 1];